language ESSENCE' 1.0

letting n_classes be 19
letting n_options be 5
letting n_cars be 200
letting quantity_Function1D be [7, 56, 2, 2, 33, 39, 3, 1, 7, 1, 4, 1, 1, 24, 8, 7, 2, 1, 1; int(1..19)]
letting usage_RelationAsSet_Explicit_1 be
        [1, 1, 2, 3, 3, 3, 4, 4, 4, 5, 6, 7, 7, 8, 8, 8, 9, 9, 10, 10, 11, 11, 12, 12, 12, 13, 13, 13, 13, 14, 15, 15,
         16, 17, 17, 17, 18, 18, 19, 19;
             int(1..40)]
letting usage_RelationAsSet_Explicit_2 be
        [2, 3, 4, 2, 4, 5, 1, 2, 3, 3, 1, 1, 5, 1, 2, 5, 1, 2, 3, 4, 1, 3, 1, 3, 5, 2, 3, 4, 5, 2, 2, 4, 5, 2, 3, 4, 1,
         4, 4, 5;
             int(1..40)]
letting blksize_Function1D be [2, 3, 3, 5, 5; int(1..5)]
letting maxcars_Function1D be [1, 2, 1, 2, 1; int(1..5)]
letting fin1 be 19
letting fin2 be 56
letting fin3 be 5
letting fin4 be 2
letting fin5 be 5
letting fin6 be 5
letting fin7 be 40
